NAME : XML100_1144_02
DIMENSION : 101
NB_CLUSTERS : 31
CLUSTERING_ALG : DBSCAN
CLUSTERING_PARAMS : eps(37), minSamples(3)
CLUSTERS
1 0
2 10 15 47 49 77 86
3 12 18 21 78
4 23 32 40 61 89 96
5 5 22 24 25 31 37 38 66 88 95 99
6 46 81 90 98
7 55 62
8 8 91
9 19 28
10 3 33 67 71 87
11 44 74
12 29 35 36
13 13 43 59 73
14 41 53
15 4 42 79 92 100
16 14 34
17 30 85
18 1 57 75 94
19 9 16 39 50
20 60 68
21 6 51 64 82
22 45 48 80
23 58 72
24 7 52 97
25 17 70
26 20 26 56 63
27 27 83
28 54 76
29 65 93
30 11 69
31 2 84
EOF